p cnf 966 2481
51 -2 -699 0
-51 2 0
-51 699 0
52 -51 -3 0
-52 51 0
-52 3 0
53 -4 -2 0
-53 4 0
-53 2 0
54 -53 -700 0
-54 53 0
-54 700 0
55 -701 -702 0
-55 701 0
-55 702 0
56 -703 -704 0
-56 703 0
-56 704 0
57 -56 -8 0
-57 56 0
-57 8 0
58 -705 -55 0
-58 705 0
-58 55 0
59 -706 -707 0
-59 706 0
-59 707 0
60 -59 -11 0
-60 59 0
-60 11 0
61 -708 -58 0
-61 708 0
-61 58 0
62 -709 -12 0
-62 709 0
-62 12 0
63 -62 -710 0
-63 62 0
-63 710 0
64 -711 -61 0
-64 711 0
-64 61 0
65 -16 -712 0
-65 16 0
-65 712 0
66 -65 -17 0
-66 65 0
-66 17 0
67 -713 -64 0
-67 713 0
-67 64 0
68 -714 -18 0
-68 714 0
-68 18 0
69 -68 -715 0
-69 68 0
-69 715 0
70 -716 -67 0
-70 716 0
-70 67 0
71 -22 -21 0
-71 22 0
-71 21 0
72 -71 -717 0
-72 71 0
-72 717 0
73 -718 -70 0
-73 718 0
-73 70 0
74 -20 -15 0
-74 20 0
-74 15 0
75 -74 -719 0
-75 74 0
-75 719 0
76 -720 -73 0
-76 720 0
-76 73 0
77 -21 -16 0
-77 21 0
-77 16 0
78 -77 -10 0
-78 77 0
-78 10 0
79 -721 -76 0
-79 721 0
-79 76 0
80 -24 -23 0
-80 24 0
-80 23 0
81 -80 -722 0
-81 80 0
-81 722 0
82 -723 -79 0
-82 723 0
-82 79 0
83 -724 -19 0
-83 724 0
-83 19 0
84 -83 -27 0
-84 83 0
-84 27 0
85 -725 -82 0
-85 725 0
-85 82 0
86 -26 -24 0
-86 26 0
-86 24 0
87 -86 -726 0
-87 86 0
-87 726 0
88 -727 -85 0
-88 727 0
-88 85 0
89 -29 -15 0
-89 29 0
-89 15 0
90 -89 -714 0
-90 89 0
-90 714 0
91 -728 -88 0
-91 728 0
-91 88 0
92 -714 -729 0
-92 714 0
-92 729 0
93 -92 -715 0
-93 92 0
-93 715 0
94 -730 -91 0
-94 730 0
-94 91 0
95 -724 -20 0
-95 724 0
-95 20 0
96 -95 -3 0
-96 95 0
-96 3 0
97 -731 -94 0
-97 731 0
-97 94 0
98 -719 -9 0
-98 719 0
-98 9 0
99 -98 -30 0
-99 98 0
-99 30 0
100 -732 -97 0
-100 732 0
-100 97 0
101 -10 -707 0
-101 10 0
-101 707 0
102 -101 -3 0
-102 101 0
-102 3 0
103 -733 -100 0
-103 733 0
-103 100 0
104 -734 -31 0
-104 734 0
-104 31 0
105 -104 -735 0
-105 104 0
-105 735 0
106 -736 -103 0
-106 736 0
-106 103 0
107 -737 -717 0
-107 737 0
-107 717 0
108 -107 -738 0
-108 107 0
-108 738 0
109 -739 -106 0
-109 739 0
-109 106 0
110 -36 -35 0
-110 36 0
-110 35 0
111 -110 -37 0
-111 110 0
-111 37 0
112 -740 -109 0
-112 740 0
-112 109 0
113 -722 -24 0
-113 722 0
-113 24 0
114 -113 -741 0
-114 113 0
-114 741 0
115 -742 -112 0
-115 742 0
-115 112 0
116 -743 -714 0
-116 743 0
-116 714 0
117 -116 -744 0
-117 116 0
-117 744 0
118 -745 -115 0
-118 745 0
-118 115 0
119 -39 -746 0
-119 39 0
-119 746 0
120 -119 -735 0
-120 119 0
-120 735 0
121 -747 -118 0
-121 747 0
-121 118 0
122 -21 -8 0
-122 21 0
-122 8 0
123 -122 -30 0
-123 122 0
-123 30 0
124 -748 -121 0
-124 748 0
-124 121 0
125 -23 -17 0
-125 23 0
-125 17 0
126 -125 -735 0
-126 125 0
-126 735 0
127 -749 -124 0
-127 749 0
-127 124 0
128 -750 -27 0
-128 750 0
-128 27 0
129 -128 -709 0
-129 128 0
-129 709 0
130 -751 -127 0
-130 751 0
-130 127 0
131 -729 -719 0
-131 729 0
-131 719 0
132 -131 -32 0
-132 131 0
-132 32 0
133 -752 -130 0
-133 752 0
-133 130 0
134 -25 -703 0
-134 25 0
-134 703 0
135 -134 -14 0
-135 134 0
-135 14 0
136 -753 -133 0
-136 753 0
-136 133 0
137 -16 -706 0
-137 16 0
-137 706 0
138 -137 -14 0
-138 137 0
-138 14 0
139 -754 -136 0
-139 754 0
-139 136 0
140 -750 -755 0
-140 750 0
-140 755 0
141 -140 -756 0
-141 140 0
-141 756 0
142 -757 -139 0
-142 757 0
-142 139 0
143 -758 -22 0
-143 758 0
-143 22 0
144 -143 -726 0
-144 143 0
-144 726 0
145 -759 -142 0
-145 759 0
-145 142 0
146 -760 -31 0
-146 760 0
-146 31 0
147 -146 -30 0
-147 146 0
-147 30 0
148 -761 -145 0
-148 761 0
-148 145 0
149 -756 -4 0
-149 756 0
-149 4 0
150 -149 -722 0
-150 149 0
-150 722 0
151 -762 -148 0
-151 762 0
-151 148 0
152 -737 -8 0
-152 737 0
-152 8 0
153 -152 -2 0
-153 152 0
-153 2 0
154 -763 -151 0
-154 763 0
-154 151 0
155 -41 -722 0
-155 41 0
-155 722 0
156 -155 -39 0
-156 155 0
-156 39 0
157 -764 -154 0
-157 764 0
-157 154 0
158 -722 -10 0
-158 722 0
-158 10 0
159 -158 -709 0
-159 158 0
-159 709 0
160 -765 -157 0
-160 765 0
-160 157 0
161 -42 -9 0
-161 42 0
-161 9 0
162 -161 -1 0
-162 161 0
-162 1 0
163 -766 -160 0
-163 766 0
-163 160 0
164 -43 -23 0
-164 43 0
-164 23 0
165 -164 -767 0
-165 164 0
-165 767 0
166 -768 -163 0
-166 768 0
-166 163 0
167 -21 -706 0
-167 21 0
-167 706 0
168 -167 -17 0
-168 167 0
-168 17 0
169 -769 -166 0
-169 769 0
-169 166 0
170 -746 -15 0
-170 746 0
-170 15 0
171 -170 -44 0
-171 170 0
-171 44 0
172 -770 -169 0
-172 770 0
-172 169 0
173 -771 -10 0
-173 771 0
-173 10 0
174 -173 -772 0
-174 173 0
-174 772 0
175 -773 -172 0
-175 773 0
-175 172 0
176 -756 -758 0
-176 756 0
-176 758 0
177 -176 -774 0
-177 176 0
-177 774 0
178 -775 -175 0
-178 775 0
-178 175 0
179 -737 -776 0
-179 737 0
-179 776 0
180 -179 -717 0
-180 179 0
-180 717 0
181 -777 -178 0
-181 777 0
-181 178 0
182 -34 -729 0
-182 34 0
-182 729 0
183 -182 -735 0
-183 182 0
-183 735 0
184 -778 -181 0
-184 778 0
-184 181 0
185 -32 -729 0
-185 32 0
-185 729 0
186 -185 -779 0
-186 185 0
-186 779 0
187 -780 -184 0
-187 780 0
-187 184 0
188 -41 -781 0
-188 41 0
-188 781 0
189 -188 -710 0
-189 188 0
-189 710 0
190 -782 -187 0
-190 782 0
-190 187 0
191 -46 -35 0
-191 46 0
-191 35 0
192 -191 -783 0
-192 191 0
-192 783 0
193 -784 -190 0
-193 784 0
-193 190 0
194 -33 -729 0
-194 33 0
-194 729 0
195 -194 -22 0
-195 194 0
-195 22 0
196 -785 -193 0
-196 785 0
-196 193 0
197 -786 -29 0
-197 786 0
-197 29 0
198 -197 -712 0
-198 197 0
-198 712 0
199 -787 -196 0
-199 787 0
-199 196 0
200 -756 -19 0
-200 756 0
-200 19 0
201 -200 -17 0
-201 200 0
-201 17 0
202 -788 -199 0
-202 788 0
-202 199 0
203 -49 -789 0
-203 49 0
-203 789 0
204 -203 -790 0
-204 203 0
-204 790 0
205 -791 -202 0
-205 791 0
-205 202 0
206 -735 -4 0
-206 735 0
-206 4 0
207 -206 -767 0
-207 206 0
-207 767 0
208 -792 -205 0
-208 792 0
-208 205 0
209 -758 -16 0
-209 758 0
-209 16 0
210 -209 -774 0
-210 209 0
-210 774 0
211 -793 -208 0
-211 793 0
-211 208 0
212 -776 -794 0
-212 776 0
-212 794 0
213 -212 -744 0
-213 212 0
-213 744 0
214 -795 -211 0
-214 795 0
-214 211 0
215 -37 -23 0
-215 37 0
-215 23 0
216 -215 -8 0
-216 215 0
-216 8 0
217 -796 -214 0
-217 796 0
-217 214 0
218 -29 -26 0
-218 29 0
-218 26 0
219 -218 -712 0
-219 218 0
-219 712 0
220 -797 -217 0
-220 797 0
-220 217 0
221 -790 -798 0
-221 790 0
-221 798 0
222 -221 -44 0
-222 221 0
-222 44 0
223 -799 -220 0
-223 799 0
-223 220 0
224 -36 -800 0
-224 36 0
-224 800 0
225 -224 -790 0
-225 224 0
-225 790 0
226 -801 -223 0
-226 801 0
-226 223 0
227 -12 -703 0
-227 12 0
-227 703 0
228 -227 -27 0
-228 227 0
-228 27 0
229 -802 -226 0
-229 802 0
-229 226 0
230 -19 -9 0
-230 19 0
-230 9 0
231 -230 -803 0
-231 230 0
-231 803 0
232 -804 -229 0
-232 804 0
-232 229 0
233 -776 -805 0
-233 776 0
-233 805 0
234 -233 -31 0
-234 233 0
-234 31 0
235 -806 -232 0
-235 806 0
-235 232 0
236 -43 -755 0
-236 43 0
-236 755 0
237 -236 -2 0
-237 236 0
-237 2 0
238 -807 -235 0
-238 807 0
-238 235 0
239 -12 -700 0
-239 12 0
-239 700 0
240 -239 -47 0
-240 239 0
-240 47 0
241 -808 -238 0
-241 808 0
-241 238 0
242 -17 -800 0
-242 17 0
-242 800 0
243 -242 -726 0
-243 242 0
-243 726 0
244 -809 -241 0
-244 809 0
-244 241 0
245 -786 -33 0
-245 786 0
-245 33 0
246 -245 -803 0
-246 245 0
-246 803 0
247 -810 -244 0
-247 810 0
-247 244 0
248 -811 -758 0
-248 811 0
-248 758 0
249 -248 -2 0
-249 248 0
-249 2 0
250 -812 -247 0
-250 812 0
-250 247 0
251 -743 -781 0
-251 743 0
-251 781 0
252 -251 -14 0
-252 251 0
-252 14 0
253 -813 -250 0
-253 813 0
-253 250 0
254 -771 -699 0
-254 771 0
-254 699 0
255 -254 -783 0
-255 254 0
-255 783 0
256 -814 -253 0
-256 814 0
-256 253 0
257 -23 -789 0
-257 23 0
-257 789 0
258 -257 -38 0
-258 257 0
-258 38 0
259 -815 -256 0
-259 815 0
-259 256 0
260 -750 -6 0
-260 750 0
-260 6 0
261 -260 -786 0
-261 260 0
-261 786 0
262 -816 -259 0
-262 816 0
-262 259 0
263 -33 -724 0
-263 33 0
-263 724 0
264 -263 -12 0
-264 263 0
-264 12 0
265 -817 -262 0
-265 817 0
-265 262 0
266 -50 -760 0
-266 50 0
-266 760 0
267 -266 -38 0
-267 266 0
-267 38 0
268 -818 -265 0
-268 818 0
-268 265 0
269 -43 -16 0
-269 43 0
-269 16 0
270 -269 -40 0
-270 269 0
-270 40 0
271 -819 -268 0
-271 819 0
-271 268 0
272 -774 -737 0
-272 774 0
-272 737 0
273 -272 -31 0
-273 272 0
-273 31 0
274 -820 -271 0
-274 820 0
-274 271 0
275 -46 -40 0
-275 46 0
-275 40 0
276 -275 -735 0
-276 275 0
-276 735 0
277 -821 -274 0
-277 821 0
-277 274 0
278 -35 -706 0
-278 35 0
-278 706 0
279 -278 -783 0
-279 278 0
-279 783 0
280 -822 -277 0
-280 822 0
-280 277 0
281 -729 -1 0
-281 729 0
-281 1 0
282 -281 -823 0
-282 281 0
-282 823 0
283 -824 -280 0
-283 824 0
-283 280 0
284 -825 -794 0
-284 825 0
-284 794 0
285 -284 -726 0
-285 284 0
-285 726 0
286 -826 -283 0
-286 826 0
-286 283 0
287 -714 -8 0
-287 714 0
-287 8 0
288 -287 -32 0
-288 287 0
-288 32 0
289 -827 -286 0
-289 827 0
-289 286 0
290 -36 -6 0
-290 36 0
-290 6 0
291 -290 -31 0
-291 290 0
-291 31 0
292 -828 -289 0
-292 828 0
-292 289 0
293 -50 -750 0
-293 50 0
-293 750 0
294 -293 -38 0
-294 293 0
-294 38 0
295 -829 -292 0
-295 829 0
-295 292 0
296 -37 -9 0
-296 37 0
-296 9 0
297 -296 -50 0
-297 296 0
-297 50 0
298 -830 -295 0
-298 830 0
-298 295 0
299 -36 -750 0
-299 36 0
-299 750 0
300 -299 -22 0
-300 299 0
-300 22 0
301 -831 -298 0
-301 831 0
-301 298 0
302 -709 -1 0
-302 709 0
-302 1 0
303 -302 -741 0
-303 302 0
-303 741 0
304 -832 -301 0
-304 832 0
-304 301 0
305 -790 -33 0
-305 790 0
-305 33 0
306 -305 -3 0
-306 305 0
-306 3 0
307 -833 -304 0
-307 833 0
-307 304 0
308 -29 -722 0
-308 29 0
-308 722 0
309 -308 -783 0
-309 308 0
-309 783 0
310 -834 -307 0
-310 834 0
-310 307 0
311 -46 -45 0
-311 46 0
-311 45 0
312 -311 -32 0
-312 311 0
-312 32 0
313 -835 -310 0
-313 835 0
-313 310 0
314 -15 -707 0
-314 15 0
-314 707 0
315 -314 -22 0
-315 314 0
-315 22 0
316 -836 -313 0
-316 836 0
-316 313 0
317 -737 -1 0
-317 737 0
-317 1 0
318 -317 -22 0
-318 317 0
-318 22 0
319 -837 -316 0
-319 837 0
-319 316 0
320 -12 -7 0
-320 12 0
-320 7 0
321 -320 -5 0
-321 320 0
-321 5 0
322 -838 -319 0
-322 838 0
-322 319 0
323 -805 -11 0
-323 805 0
-323 11 0
324 -323 -34 0
-324 323 0
-324 34 0
325 -839 -322 0
-325 839 0
-325 322 0
326 -714 -6 0
-326 714 0
-326 6 0
327 -326 -790 0
-327 326 0
-327 790 0
328 -840 -325 0
-328 840 0
-328 325 0
329 -805 -1 0
-329 805 0
-329 1 0
330 -329 -31 0
-330 329 0
-330 31 0
331 -841 -328 0
-331 841 0
-331 328 0
332 -47 -29 0
-332 47 0
-332 29 0
333 -332 -3 0
-333 332 0
-333 3 0
334 -842 -331 0
-334 842 0
-334 331 0
335 -15 -7 0
-335 15 0
-335 7 0
336 -335 -2 0
-336 335 0
-336 2 0
337 -843 -334 0
-337 843 0
-337 334 0
338 -755 -722 0
-338 755 0
-338 722 0
339 -338 -709 0
-339 338 0
-339 709 0
340 -844 -337 0
-340 844 0
-340 337 0
341 -771 -703 0
-341 771 0
-341 703 0
342 -341 -774 0
-342 341 0
-342 774 0
343 -845 -340 0
-343 845 0
-343 340 0
344 -774 -699 0
-344 774 0
-344 699 0
345 -344 -790 0
-345 344 0
-345 790 0
346 -846 -343 0
-346 846 0
-346 343 0
347 -771 -2 0
-347 771 0
-347 2 0
348 -347 -3 0
-348 347 0
-348 3 0
349 -847 -346 0
-349 847 0
-349 346 0
350 -22 -18 0
-350 22 0
-350 18 0
351 -350 -744 0
-351 350 0
-351 744 0
352 -848 -349 0
-352 848 0
-352 349 0
353 -27 -16 0
-353 27 0
-353 16 0
354 -353 -805 0
-354 353 0
-354 805 0
355 -849 -352 0
-355 849 0
-355 352 0
356 -714 -10 0
-356 714 0
-356 10 0
357 -356 -39 0
-357 356 0
-357 39 0
358 -850 -355 0
-358 850 0
-358 355 0
359 -48 -4 0
-359 48 0
-359 4 0
360 -359 -3 0
-360 359 0
-360 3 0
361 -851 -358 0
-361 851 0
-361 358 0
362 -56 -2 0
-362 56 0
-362 2 0
363 -852 -361 0
-363 852 0
-363 361 0
364 -823 -789 0
-364 823 0
-364 789 0
365 -364 -5 0
-365 364 0
-365 5 0
366 -853 -363 0
-366 853 0
-366 363 0
367 -825 -776 0
-367 825 0
-367 776 0
368 -367 -14 0
-368 367 0
-368 14 0
369 -854 -366 0
-369 854 0
-369 366 0
370 -715 -699 0
-370 715 0
-370 699 0
371 -370 -734 0
-371 370 0
-371 734 0
372 -855 -369 0
-372 855 0
-372 369 0
373 -729 -781 0
-373 729 0
-373 781 0
374 -373 -744 0
-374 373 0
-374 744 0
375 -856 -372 0
-375 856 0
-375 372 0
376 -50 -755 0
-376 50 0
-376 755 0
377 -376 -47 0
-377 376 0
-377 47 0
378 -857 -375 0
-378 857 0
-378 375 0
379 -24 -798 0
-379 24 0
-379 798 0
380 -379 -779 0
-380 379 0
-380 779 0
381 -858 -378 0
-381 858 0
-381 378 0
382 -50 -39 0
-382 50 0
-382 39 0
383 -382 -772 0
-383 382 0
-383 772 0
384 -859 -381 0
-384 859 0
-384 381 0
385 -738 -21 0
-385 738 0
-385 21 0
386 -385 -734 0
-386 385 0
-386 734 0
387 -860 -384 0
-387 860 0
-387 384 0
388 -771 -35 0
-388 771 0
-388 35 0
389 -388 -1 0
-389 388 0
-389 1 0
390 -861 -387 0
-390 861 0
-390 387 0
391 -862 -10 0
-391 862 0
-391 10 0
392 -391 -722 0
-392 391 0
-392 722 0
393 -863 -390 0
-393 863 0
-393 390 0
394 -719 -781 0
-394 719 0
-394 781 0
395 -394 -700 0
-395 394 0
-395 700 0
396 -864 -393 0
-396 864 0
-396 393 0
397 -49 -862 0
-397 49 0
-397 862 0
398 -397 -39 0
-398 397 0
-398 39 0
399 -865 -396 0
-399 865 0
-399 396 0
400 -758 -9 0
-400 758 0
-400 9 0
401 -400 -11 0
-401 400 0
-401 11 0
402 -866 -399 0
-402 866 0
-402 399 0
403 -45 -19 0
-403 45 0
-403 19 0
404 -403 -32 0
-404 403 0
-404 32 0
405 -867 -402 0
-405 867 0
-405 402 0
406 -755 -4 0
-406 755 0
-406 4 0
407 -406 -783 0
-407 406 0
-407 783 0
408 -868 -405 0
-408 868 0
-408 405 0
409 -42 -710 0
-409 42 0
-409 710 0
410 -409 -44 0
-410 409 0
-410 44 0
411 -869 -408 0
-411 869 0
-411 408 0
412 -50 -41 0
-412 50 0
-412 41 0
413 -412 -17 0
-413 412 0
-413 17 0
414 -870 -411 0
-414 870 0
-414 411 0
415 -758 -12 0
-415 758 0
-415 12 0
416 -415 -715 0
-416 415 0
-416 715 0
417 -871 -414 0
-417 871 0
-417 414 0
418 -714 -710 0
-418 714 0
-418 710 0
419 -418 -772 0
-419 418 0
-419 772 0
420 -872 -417 0
-420 872 0
-420 417 0
421 -729 -6 0
-421 729 0
-421 6 0
422 -421 -771 0
-422 421 0
-422 771 0
423 -873 -420 0
-423 873 0
-423 420 0
424 -786 -43 0
-424 786 0
-424 43 0
425 -424 -794 0
-425 424 0
-425 794 0
426 -874 -423 0
-426 874 0
-426 423 0
427 -717 -703 0
-427 717 0
-427 703 0
428 -427 -47 0
-428 427 0
-428 47 0
429 -875 -426 0
-429 875 0
-429 426 0
430 -823 -707 0
-430 823 0
-430 707 0
431 -430 -47 0
-431 430 0
-431 47 0
432 -876 -429 0
-432 876 0
-432 429 0
433 -10 -7 0
-433 10 0
-433 7 0
434 -433 -734 0
-434 433 0
-434 734 0
435 -877 -432 0
-435 877 0
-435 432 0
436 -771 -750 0
-436 771 0
-436 750 0
437 -436 -741 0
-437 436 0
-437 741 0
438 -878 -435 0
-438 878 0
-438 435 0
439 -36 -738 0
-439 36 0
-439 738 0
440 -439 -38 0
-440 439 0
-440 38 0
441 -879 -438 0
-441 879 0
-441 438 0
442 -19 -717 0
-442 19 0
-442 717 0
443 -442 -726 0
-443 442 0
-443 726 0
444 -880 -441 0
-444 880 0
-444 441 0
445 -27 -7 0
-445 27 0
-445 7 0
446 -445 -709 0
-446 445 0
-446 709 0
447 -881 -444 0
-447 881 0
-447 444 0
448 -737 -9 0
-448 737 0
-448 9 0
449 -448 -10 0
-449 448 0
-449 10 0
450 -882 -447 0
-450 882 0
-450 447 0
451 -173 -20 0
-451 173 0
-451 20 0
452 -883 -450 0
-452 883 0
-452 450 0
453 -29 -20 0
-453 29 0
-453 20 0
454 -453 -783 0
-454 453 0
-454 783 0
455 -884 -452 0
-455 884 0
-455 452 0
456 -805 -800 0
-456 805 0
-456 800 0
457 -456 -28 0
-457 456 0
-457 28 0
458 -885 -455 0
-458 885 0
-458 455 0
459 -49 -2 0
-459 49 0
-459 2 0
460 -459 -39 0
-460 459 0
-460 39 0
461 -886 -458 0
-461 886 0
-461 458 0
462 -42 -12 0
-462 42 0
-462 12 0
463 -462 -710 0
-463 462 0
-463 710 0
464 -887 -461 0
-464 887 0
-464 461 0
465 -756 -755 0
-465 756 0
-465 755 0
466 -465 -774 0
-466 465 0
-466 774 0
467 -888 -464 0
-467 888 0
-467 464 0
468 -729 -17 0
-468 729 0
-468 17 0
469 -468 -32 0
-469 468 0
-469 32 0
470 -889 -467 0
-470 889 0
-470 467 0
471 -790 -23 0
-471 790 0
-471 23 0
472 -471 -710 0
-472 471 0
-472 710 0
473 -890 -470 0
-473 890 0
-473 470 0
474 -41 -29 0
-474 41 0
-474 29 0
475 -474 -47 0
-475 474 0
-475 47 0
476 -891 -473 0
-476 891 0
-476 473 0
477 -42 -758 0
-477 42 0
-477 758 0
478 -477 -28 0
-478 477 0
-478 28 0
479 -892 -476 0
-479 892 0
-479 476 0
480 -805 -707 0
-480 805 0
-480 707 0
481 -480 -717 0
-481 480 0
-481 717 0
482 -893 -479 0
-482 893 0
-482 479 0
483 -756 -10 0
-483 756 0
-483 10 0
484 -483 -734 0
-484 483 0
-484 734 0
485 -894 -482 0
-485 894 0
-485 482 0
486 -43 -722 0
-486 43 0
-486 722 0
487 -486 -39 0
-487 486 0
-487 39 0
488 -895 -485 0
-488 895 0
-488 485 0
489 -45 -794 0
-489 45 0
-489 794 0
490 -489 -10 0
-490 489 0
-490 10 0
491 -896 -488 0
-491 896 0
-491 488 0
492 -23 -10 0
-492 23 0
-492 10 0
493 -492 -734 0
-493 492 0
-493 734 0
494 -897 -491 0
-494 897 0
-494 491 0
495 -712 -800 0
-495 712 0
-495 800 0
496 -495 -34 0
-496 495 0
-496 34 0
497 -898 -494 0
-497 898 0
-497 494 0
498 -19 -15 0
-498 19 0
-498 15 0
499 -498 -726 0
-499 498 0
-499 726 0
500 -899 -497 0
-500 899 0
-500 497 0
501 -36 -33 0
-501 36 0
-501 33 0
502 -501 -47 0
-502 501 0
-502 47 0
503 -900 -500 0
-503 900 0
-503 500 0
504 -811 -23 0
-504 811 0
-504 23 0
505 -504 -28 0
-505 504 0
-505 28 0
506 -901 -503 0
-506 901 0
-506 503 0
507 -22 -703 0
-507 22 0
-507 703 0
508 -507 -715 0
-508 507 0
-508 715 0
509 -902 -506 0
-509 902 0
-509 506 0
510 -45 -862 0
-510 45 0
-510 862 0
511 -510 -46 0
-511 510 0
-511 46 0
512 -903 -509 0
-512 903 0
-512 509 0
513 -726 -803 0
-513 726 0
-513 803 0
514 -513 -772 0
-514 513 0
-514 772 0
515 -904 -512 0
-515 904 0
-515 512 0
516 -811 -33 0
-516 811 0
-516 33 0
517 -516 -7 0
-517 516 0
-517 7 0
518 -905 -515 0
-518 905 0
-518 515 0
519 -33 -735 0
-519 33 0
-519 735 0
520 -519 -3 0
-520 519 0
-520 3 0
521 -906 -518 0
-521 906 0
-521 518 0
522 -724 -715 0
-522 724 0
-522 715 0
523 -522 -734 0
-523 522 0
-523 734 0
524 -907 -521 0
-524 907 0
-524 521 0
525 -771 -34 0
-525 771 0
-525 34 0
526 -525 -38 0
-526 525 0
-526 38 0
527 -908 -524 0
-527 908 0
-527 524 0
528 -31 -726 0
-528 31 0
-528 726 0
529 -528 -44 0
-529 528 0
-529 44 0
530 -909 -527 0
-530 909 0
-530 527 0
531 -811 -15 0
-531 811 0
-531 15 0
532 -531 -40 0
-532 531 0
-532 40 0
533 -910 -530 0
-533 910 0
-533 530 0
534 -287 -805 0
-534 287 0
-534 805 0
535 -911 -533 0
-535 911 0
-535 533 0
536 -811 -750 0
-536 811 0
-536 750 0
537 -536 -741 0
-537 536 0
-537 741 0
538 -912 -535 0
-538 912 0
-538 535 0
539 -774 -12 0
-539 774 0
-539 12 0
540 -539 -47 0
-540 539 0
-540 47 0
541 -913 -538 0
-541 913 0
-541 538 0
542 -42 -40 0
-542 42 0
-542 40 0
543 -542 -47 0
-543 542 0
-543 47 0
544 -914 -541 0
-544 914 0
-544 541 0
545 -823 -43 0
-545 823 0
-545 43 0
546 -545 -44 0
-546 545 0
-546 44 0
547 -915 -544 0
-547 915 0
-547 544 0
548 -29 -714 0
-548 29 0
-548 714 0
549 -548 -27 0
-549 548 0
-549 27 0
550 -916 -547 0
-550 916 0
-550 547 0
551 -20 -714 0
-551 20 0
-551 714 0
552 -551 -41 0
-552 551 0
-552 41 0
553 -917 -550 0
-553 917 0
-553 550 0
554 -862 -36 0
-554 862 0
-554 36 0
555 -554 -794 0
-555 554 0
-555 794 0
556 -918 -553 0
-556 918 0
-556 553 0
557 -825 -15 0
-557 825 0
-557 15 0
558 -557 -34 0
-558 557 0
-558 34 0
559 -919 -556 0
-559 919 0
-559 556 0
560 -27 -805 0
-560 27 0
-560 805 0
561 -560 -41 0
-561 560 0
-561 41 0
562 -920 -559 0
-562 920 0
-562 559 0
563 -19 -704 0
-563 19 0
-563 704 0
564 -563 -719 0
-564 563 0
-564 719 0
565 -921 -562 0
-565 921 0
-565 562 0
566 -774 -40 0
-566 774 0
-566 40 0
567 -566 -28 0
-567 566 0
-567 28 0
568 -922 -565 0
-568 922 0
-568 565 0
569 -43 -33 0
-569 43 0
-569 33 0
570 -569 -783 0
-570 569 0
-570 783 0
571 -923 -568 0
-571 923 0
-571 568 0
572 -19 -712 0
-572 19 0
-572 712 0
573 -572 -803 0
-573 572 0
-573 803 0
574 -924 -571 0
-574 924 0
-574 571 0
575 -45 -9 0
-575 45 0
-575 9 0
576 -575 -774 0
-576 575 0
-576 774 0
577 -925 -574 0
-577 925 0
-577 574 0
578 -744 -738 0
-578 744 0
-578 738 0
579 -578 -14 0
-579 578 0
-579 14 0
580 -926 -577 0
-580 926 0
-580 577 0
581 -41 -734 0
-581 41 0
-581 734 0
582 -581 -14 0
-582 581 0
-582 14 0
583 -927 -580 0
-583 927 0
-583 580 0
584 -760 -17 0
-584 760 0
-584 17 0
585 -584 -734 0
-585 584 0
-585 734 0
586 -928 -583 0
-586 928 0
-586 583 0
587 -25 -729 0
-587 25 0
-587 729 0
588 -587 -48 0
-588 587 0
-588 48 0
589 -929 -586 0
-589 929 0
-589 586 0
590 -714 -706 0
-590 714 0
-590 706 0
591 -590 -738 0
-591 590 0
-591 738 0
592 -930 -589 0
-592 930 0
-592 589 0
593 -786 -755 0
-593 786 0
-593 755 0
594 -593 -712 0
-594 593 0
-594 712 0
595 -931 -592 0
-595 931 0
-595 592 0
596 -15 -699 0
-596 15 0
-596 699 0
597 -596 -744 0
-597 596 0
-597 744 0
598 -932 -595 0
-598 932 0
-598 595 0
599 -46 -19 0
-599 46 0
-599 19 0
600 -599 -744 0
-600 599 0
-600 744 0
601 -933 -598 0
-601 933 0
-601 598 0
602 -35 -794 0
-602 35 0
-602 794 0
603 -602 -44 0
-603 602 0
-603 44 0
604 -934 -601 0
-604 934 0
-604 601 0
605 -755 -1 0
-605 755 0
-605 1 0
606 -605 -790 0
-606 605 0
-606 790 0
607 -935 -604 0
-607 935 0
-607 604 0
608 -811 -798 0
-608 811 0
-608 798 0
609 -608 -22 0
-609 608 0
-609 22 0
610 -936 -607 0
-610 936 0
-610 607 0
611 -36 -18 0
-611 36 0
-611 18 0
612 -611 -14 0
-612 611 0
-612 14 0
613 -937 -610 0
-613 937 0
-613 610 0
614 -746 -9 0
-614 746 0
-614 9 0
615 -614 -28 0
-615 614 0
-615 28 0
616 -938 -613 0
-616 938 0
-616 613 0
617 -771 -1 0
-617 771 0
-617 1 0
618 -617 -709 0
-618 617 0
-618 709 0
619 -939 -616 0
-619 939 0
-619 616 0
620 -34 -712 0
-620 34 0
-620 712 0
621 -620 -38 0
-621 620 0
-621 38 0
622 -940 -619 0
-622 940 0
-622 619 0
623 -50 -6 0
-623 50 0
-623 6 0
624 -623 -783 0
-624 623 0
-624 783 0
625 -941 -622 0
-625 941 0
-625 622 0
626 -798 -704 0
-626 798 0
-626 704 0
627 -626 -717 0
-627 626 0
-627 717 0
628 -942 -625 0
-628 942 0
-628 625 0
629 -15 -6 0
-629 15 0
-629 6 0
630 -629 -734 0
-630 629 0
-630 734 0
631 -943 -628 0
-631 943 0
-631 628 0
632 -18 -16 0
-632 18 0
-632 16 0
633 -632 -4 0
-633 632 0
-633 4 0
634 -944 -631 0
-634 944 0
-634 631 0
635 -774 -717 0
-635 774 0
-635 717 0
636 -635 -17 0
-636 635 0
-636 17 0
637 -945 -634 0
-637 945 0
-637 634 0
638 -719 -1 0
-638 719 0
-638 1 0
639 -638 -39 0
-639 638 0
-639 39 0
640 -946 -637 0
-640 946 0
-640 637 0
641 -811 -6 0
-641 811 0
-641 6 0
642 -641 -729 0
-642 641 0
-642 729 0
643 -947 -640 0
-643 947 0
-643 640 0
644 -786 -712 0
-644 786 0
-644 712 0
645 -644 -729 0
-645 644 0
-645 729 0
646 -948 -643 0
-646 948 0
-646 643 0
647 -15 -4 0
-647 15 0
-647 4 0
648 -647 -34 0
-648 647 0
-648 34 0
649 -949 -646 0
-649 949 0
-649 646 0
650 -16 -10 0
-650 16 0
-650 10 0
651 -650 -50 0
-651 650 0
-651 50 0
652 -950 -649 0
-652 950 0
-652 649 0
653 -33 -781 0
-653 33 0
-653 781 0
654 -653 -24 0
-654 653 0
-654 24 0
655 -951 -652 0
-655 951 0
-655 652 0
656 -41 -6 0
-656 41 0
-656 6 0
657 -656 -790 0
-657 656 0
-657 790 0
658 -952 -655 0
-658 952 0
-658 655 0
659 -36 -29 0
-659 36 0
-659 29 0
660 -659 -719 0
-660 659 0
-660 719 0
661 -953 -658 0
-661 953 0
-661 658 0
662 -774 -18 0
-662 774 0
-662 18 0
663 -662 -823 0
-663 662 0
-663 823 0
664 -954 -661 0
-664 954 0
-664 661 0
665 -709 -699 0
-665 709 0
-665 699 0
666 -665 -40 0
-666 665 0
-666 40 0
667 -955 -664 0
-667 955 0
-667 664 0
668 -33 -722 0
-668 33 0
-668 722 0
669 -668 -39 0
-669 668 0
-669 39 0
670 -956 -667 0
-670 956 0
-670 667 0
671 -786 -42 0
-671 786 0
-671 42 0
672 -671 -14 0
-672 671 0
-672 14 0
673 -957 -670 0
-673 957 0
-673 670 0
674 -671 -46 0
-674 671 0
-674 46 0
675 -958 -673 0
-675 958 0
-675 673 0
676 -798 -11 0
-676 798 0
-676 11 0
677 -676 -48 0
-677 676 0
-677 48 0
678 -959 -675 0
-678 959 0
-678 675 0
679 -45 -43 0
-679 45 0
-679 43 0
680 -679 -710 0
-680 679 0
-680 710 0
681 -960 -678 0
-681 960 0
-681 678 0
682 -43 -19 0
-682 43 0
-682 19 0
683 -682 -715 0
-683 682 0
-683 715 0
684 -961 -681 0
-684 961 0
-684 681 0
685 -783 -756 0
-685 783 0
-685 756 0
686 -685 -772 0
-686 685 0
-686 772 0
687 -962 -684 0
-687 962 0
-687 684 0
688 -49 -33 0
-688 49 0
-688 33 0
689 -688 -10 0
-689 688 0
-689 10 0
690 -963 -687 0
-690 963 0
-690 687 0
691 -498 -30 0
-691 498 0
-691 30 0
692 -964 -690 0
-692 964 0
-692 690 0
693 -33 -24 0
-693 33 0
-693 24 0
694 -693 -13 0
-694 693 0
-694 13 0
695 -965 -692 0
-695 965 0
-695 692 0
696 -26 -9 0
-696 26 0
-696 9 0
697 -696 -715 0
-697 696 0
-697 715 0
698 -966 -695 0
-698 966 0
-698 695 0
-699 -1 0
699 1 0
-700 -5 0
700 5 0
-701 -54 0
701 54 0
-702 -52 0
702 52 0
-703 -7 0
703 7 0
-704 -6 0
704 6 0
-705 -57 0
705 57 0
-706 -10 0
706 10 0
-707 -9 0
707 9 0
-708 -60 0
708 60 0
-709 -13 0
709 13 0
-710 -14 0
710 14 0
-711 -63 0
711 63 0
-712 -15 0
712 15 0
-713 -66 0
713 66 0
-714 -19 0
714 19 0
-715 -20 0
715 20 0
-716 -69 0
716 69 0
-717 -11 0
717 11 0
-718 -72 0
718 72 0
-719 -17 0
719 17 0
-720 -75 0
720 75 0
-721 -78 0
721 78 0
-722 -25 0
722 25 0
-723 -81 0
723 81 0
-724 -26 0
724 26 0
-725 -84 0
725 84 0
-726 -28 0
726 28 0
-727 -87 0
727 87 0
-728 -90 0
728 90 0
-729 -18 0
729 18 0
-730 -93 0
730 93 0
-731 -96 0
731 96 0
-732 -99 0
732 99 0
-733 -102 0
733 102 0
-734 -32 0
734 32 0
-735 -30 0
735 30 0
-736 -105 0
736 105 0
-737 -33 0
737 33 0
-738 -34 0
738 34 0
-739 -108 0
739 108 0
-740 -111 0
740 111 0
-741 -31 0
741 31 0
-742 -114 0
742 114 0
-743 -24 0
743 24 0
-744 -38 0
744 38 0
-745 -117 0
745 117 0
-746 -36 0
746 36 0
-747 -120 0
747 120 0
-748 -123 0
748 123 0
-749 -126 0
749 126 0
-750 -35 0
750 35 0
-751 -129 0
751 129 0
-752 -132 0
752 132 0
-753 -135 0
753 135 0
-754 -138 0
754 138 0
-755 -29 0
755 29 0
-756 -37 0
756 37 0
-757 -141 0
757 141 0
-758 -27 0
758 27 0
-759 -144 0
759 144 0
-760 -40 0
760 40 0
-761 -147 0
761 147 0
-762 -150 0
762 150 0
-763 -153 0
763 153 0
-764 -156 0
764 156 0
-765 -159 0
765 159 0
-766 -162 0
766 162 0
-767 -3 0
767 3 0
-768 -165 0
768 165 0
-769 -168 0
769 168 0
-770 -171 0
770 171 0
-771 -45 0
771 45 0
-772 -44 0
772 44 0
-773 -174 0
773 174 0
-774 -46 0
774 46 0
-775 -177 0
775 177 0
-776 -23 0
776 23 0
-777 -180 0
777 180 0
-778 -183 0
778 183 0
-779 -47 0
779 47 0
-780 -186 0
780 186 0
-781 -4 0
781 4 0
-782 -189 0
782 189 0
-783 -48 0
783 48 0
-784 -192 0
784 192 0
-785 -195 0
785 195 0
-786 -49 0
786 49 0
-787 -198 0
787 198 0
-788 -201 0
788 201 0
-789 -12 0
789 12 0
-790 -39 0
790 39 0
-791 -204 0
791 204 0
-792 -207 0
792 207 0
-793 -210 0
793 210 0
-794 -16 0
794 16 0
-795 -213 0
795 213 0
-796 -216 0
796 216 0
-797 -219 0
797 219 0
-798 -21 0
798 21 0
-799 -222 0
799 222 0
-800 -8 0
800 8 0
-801 -225 0
801 225 0
-802 -228 0
802 228 0
-803 -2 0
803 2 0
-804 -231 0
804 231 0
-805 -22 0
805 22 0
-806 -234 0
806 234 0
-807 -237 0
807 237 0
-808 -240 0
808 240 0
-809 -243 0
809 243 0
-810 -246 0
810 246 0
-811 -42 0
811 42 0
-812 -249 0
812 249 0
-813 -252 0
813 252 0
-814 -255 0
814 255 0
-815 -258 0
815 258 0
-816 -261 0
816 261 0
-817 -264 0
817 264 0
-818 -267 0
818 267 0
-819 -270 0
819 270 0
-820 -273 0
820 273 0
-821 -276 0
821 276 0
-822 -279 0
822 279 0
-823 -50 0
823 50 0
-824 -282 0
824 282 0
-825 -41 0
825 41 0
-826 -285 0
826 285 0
-827 -288 0
827 288 0
-828 -291 0
828 291 0
-829 -294 0
829 294 0
-830 -297 0
830 297 0
-831 -300 0
831 300 0
-832 -303 0
832 303 0
-833 -306 0
833 306 0
-834 -309 0
834 309 0
-835 -312 0
835 312 0
-836 -315 0
836 315 0
-837 -318 0
837 318 0
-838 -321 0
838 321 0
-839 -324 0
839 324 0
-840 -327 0
840 327 0
-841 -330 0
841 330 0
-842 -333 0
842 333 0
-843 -336 0
843 336 0
-844 -339 0
844 339 0
-845 -342 0
845 342 0
-846 -345 0
846 345 0
-847 -348 0
847 348 0
-848 -351 0
848 351 0
-849 -354 0
849 354 0
-850 -357 0
850 357 0
-851 -360 0
851 360 0
-852 -362 0
852 362 0
-853 -365 0
853 365 0
-854 -368 0
854 368 0
-855 -371 0
855 371 0
-856 -374 0
856 374 0
-857 -377 0
857 377 0
-858 -380 0
858 380 0
-859 -383 0
859 383 0
-860 -386 0
860 386 0
-861 -389 0
861 389 0
-862 -43 0
862 43 0
-863 -392 0
863 392 0
-864 -395 0
864 395 0
-865 -398 0
865 398 0
-866 -401 0
866 401 0
-867 -404 0
867 404 0
-868 -407 0
868 407 0
-869 -410 0
869 410 0
-870 -413 0
870 413 0
-871 -416 0
871 416 0
-872 -419 0
872 419 0
-873 -422 0
873 422 0
-874 -425 0
874 425 0
-875 -428 0
875 428 0
-876 -431 0
876 431 0
-877 -434 0
877 434 0
-878 -437 0
878 437 0
-879 -440 0
879 440 0
-880 -443 0
880 443 0
-881 -446 0
881 446 0
-882 -449 0
882 449 0
-883 -451 0
883 451 0
-884 -454 0
884 454 0
-885 -457 0
885 457 0
-886 -460 0
886 460 0
-887 -463 0
887 463 0
-888 -466 0
888 466 0
-889 -469 0
889 469 0
-890 -472 0
890 472 0
-891 -475 0
891 475 0
-892 -478 0
892 478 0
-893 -481 0
893 481 0
-894 -484 0
894 484 0
-895 -487 0
895 487 0
-896 -490 0
896 490 0
-897 -493 0
897 493 0
-898 -496 0
898 496 0
-899 -499 0
899 499 0
-900 -502 0
900 502 0
-901 -505 0
901 505 0
-902 -508 0
902 508 0
-903 -511 0
903 511 0
-904 -514 0
904 514 0
-905 -517 0
905 517 0
-906 -520 0
906 520 0
-907 -523 0
907 523 0
-908 -526 0
908 526 0
-909 -529 0
909 529 0
-910 -532 0
910 532 0
-911 -534 0
911 534 0
-912 -537 0
912 537 0
-913 -540 0
913 540 0
-914 -543 0
914 543 0
-915 -546 0
915 546 0
-916 -549 0
916 549 0
-917 -552 0
917 552 0
-918 -555 0
918 555 0
-919 -558 0
919 558 0
-920 -561 0
920 561 0
-921 -564 0
921 564 0
-922 -567 0
922 567 0
-923 -570 0
923 570 0
-924 -573 0
924 573 0
-925 -576 0
925 576 0
-926 -579 0
926 579 0
-927 -582 0
927 582 0
-928 -585 0
928 585 0
-929 -588 0
929 588 0
-930 -591 0
930 591 0
-931 -594 0
931 594 0
-932 -597 0
932 597 0
-933 -600 0
933 600 0
-934 -603 0
934 603 0
-935 -606 0
935 606 0
-936 -609 0
936 609 0
-937 -612 0
937 612 0
-938 -615 0
938 615 0
-939 -618 0
939 618 0
-940 -621 0
940 621 0
-941 -624 0
941 624 0
-942 -627 0
942 627 0
-943 -630 0
943 630 0
-944 -633 0
944 633 0
-945 -636 0
945 636 0
-946 -639 0
946 639 0
-947 -642 0
947 642 0
-948 -645 0
948 645 0
-949 -648 0
949 648 0
-950 -651 0
950 651 0
-951 -654 0
951 654 0
-952 -657 0
952 657 0
-953 -660 0
953 660 0
-954 -663 0
954 663 0
-955 -666 0
955 666 0
-956 -669 0
956 669 0
-957 -672 0
957 672 0
-958 -674 0
958 674 0
-959 -677 0
959 677 0
-960 -680 0
960 680 0
-961 -683 0
961 683 0
-962 -686 0
962 686 0
-963 -689 0
963 689 0
-964 -691 0
964 691 0
-965 -694 0
965 694 0
-966 -697 0
966 697 0
698 0
